p cnf 12 28
12 -11 -2 0
12 11 2 0
-12 10 9 0
12 -8 3 0
-12 6 2 0
-12 5 1 0
11 -10 -6 0
11 10 6 0
11 9 -8 0
11 -8 4 0
-11 -7 2 0
-10 9 -8 0
10 -9 -6 0
-10 -7 -2 0
-10 6 2 0
10 5 -2 0
-9 -8 -6 0
8 -7 -2 0
-8 6 5 0
-8 5 4 0
8 -4 3 0
8 4 -2 0
-7 -4 1 0
6 -5 3 0
-6 -4 3 0
6 -3 -2 0
-5 -4 -2 0
4 -3 -1 0
